c Source: inf-power (2-hop neighborhood of node 3896)
c n=29, m=44, circuit_rank=16
c Augmented with 9 edges for Eulerian condition
p sp 29
e 10 23
e 7 20
e 8 18
e 18 20
e 5 26
e 18 25
e 2 5
e 17 18
e 5 18
e 3 6
e 14 18
e 11 18
e 19 20
e 13 25
e 18 24
e 21 25
e 4 6
e 1 5
e 17 21
e 9 10
e 16 17
e 12 16
e 7 11
e 7 18
e 8 9
e 6 18
e 13 24
e 15 22
e 14 15
e 18 23
e 7 8
e 12 15
e 13 18
e 2 26
e 15 18
e 1 3
e 4 27
e 6 27
e 8 13
e 17 28
e 18 28
e 19 29
e 20 29
e 22 25
